
        $ From http://www.csplib.org/Problems/prob009/data/helmut.pdf
        $ Problem number 80
        $ Sequence length : 25
        language ESSENCE' 1.0
        letting sizemaster be 314
        letting sizes be sequence(1,6,7,11,16,22,26,29,32,36,38,44,51,53,64,69,70,73,74,75,85,87,101,116,128)
        